# seed = 1254829604

param N := 4;

param M := 2;

param Umax := 100.000000;

param: C :=
1	12712.000000
2	13088.000000
;

param: a :=
1	0.152216
2	0.2
3	0.2
4	0.1
;

param: b :=
1	44.742557
2	1.0
3	1.0
4	50.0
;

param: c :=
1	72.273751
2	50.0
3	50.0
4	80.0
;

param: d :=
1	-21.229801
2	-100.0
3	0.0
4	-10.0
;

param: weight :=
1	4.000000
2	44.000000
3	63.000000
4	55.000000
;

param: U :=
1	100.000000
2	100.000000
3	100.000000
4	100.000000
;

